NAME : rcdp0504
TYPE : VRPSPDTW
DIMENSION : 6
VEHICLES : 2
CAPACITY : 200
EDGE_WEIGHT_TYPE : EXACT_2D
NODE_COORD_SECTION
1 40 50
2 20 80
3 55 20
4 10 20
5 41 37
6 64 42
PICKUP_AND_DELIVERY_SECTION
1 0 0 240 0 0 0
2 0 141 171 10 20 40
3 0 0 196 10 2 19
4 0 0 187 10 1 19
5 0 0 216 10 18 16
6 0 70 100 10 22 9
DEPOT_SECTION
1 
-1
